(set-info :origin "NTS benchmark converted to SMT-LIB2 using Eldarica (http://lara.epfl.ch/w/eldarica)")
(set-logic HORN)
(declare-fun INV1 ((_ BitVec 32) (_ BitVec 32) (_ BitVec 32) (_ BitVec 32) (_ BitVec 32) (_ BitVec 32) (_ BitVec 32) (_ BitVec 32)) Bool)
(assert (forall ((A (_ BitVec 32)) (B (_ BitVec 32)) (C (_ BitVec 32)) (D (_ BitVec 32)) (E (_ BitVec 32)) (F (_ BitVec 32)) (G (_ BitVec 32)) (H (_ BitVec 32)) (I (_ BitVec 32)) (J (_ BitVec 32)))(=> (and (and (and (and (and (= (bvadd I (_ bv1 32)) E) (= (bvadd J I) F)) (not (bvsge A B))) (bvsge D I)) (INV1 A B C D I J G H)) (= G H)) (INV1 A B C D E F G H))))
(assert (forall ((A (_ BitVec 32)) (B (_ BitVec 32)) (C (_ BitVec 32)) (D (_ BitVec 32)) (E (_ BitVec 32)) (F (_ BitVec 32)) (G (_ BitVec 32)) (H (_ BitVec 32)) (I (_ BitVec 32)) (J (_ BitVec 32)) (K (_ BitVec 32)) (L (_ BitVec 32)))(=> (and (and (and (and (and (and (and (= (bvadd I (_ bv1 32)) B) (= (bvadd J I) C)) (= (bvadd K (_ bv1 32)) E)) (= (bvadd L K) F)) (bvsge A I)) (bvsge D K)) (INV1 A I J D K L G H)) (= G H)) (INV1 A B C D E F G H))))
(assert (forall ((A (_ BitVec 32)) (B (_ BitVec 32)) (C (_ BitVec 32)) (D (_ BitVec 32)) (E (_ BitVec 32)) (F (_ BitVec 32)) (G (_ BitVec 32)) (H (_ BitVec 32)) (I (_ BitVec 32)) (J (_ BitVec 32)))(=> (and (and (and (and (and (= (bvadd I (_ bv1 32)) B) (= (bvadd J I) C)) (bvsge A I)) (not (bvsge D E))) (INV1 A I J D E F G H)) (= G H)) (INV1 A B C D E F G H))))
(assert (not (exists ((A (_ BitVec 32)) (B (_ BitVec 32)) (C (_ BitVec 32)) (D (_ BitVec 32)) (E (_ BitVec 32)) (F (_ BitVec 32)) (G (_ BitVec 32)) (H (_ BitVec 32)))(and (and (and (and (not (= A B)) (not (bvsge C D))) (not (bvsge E F))) (INV1 C D A E F B G H)) (= G H)))))
(assert (forall ((A (_ BitVec 32)) (B (_ BitVec 32)) (C (_ BitVec 32)) (D (_ BitVec 32)) (E (_ BitVec 32)) (F (_ BitVec 32)))(=> (and (and (and (and (= (bvmul (bvneg (_ bv1 32)) B) (_ bv0 32)) (= (bvmul (bvneg (_ bv1 32)) C) (_ bv0 32))) (= (bvmul (bvneg (_ bv1 32)) E) (bvneg (_ bv1 32)))) (= (bvmul (bvneg (_ bv1 32)) F) (_ bv0 32))) (= A D)) (INV1 A B C D E F A D))))
(check-sat)
